num_offers = 20;
num_halls = 10;
start=[83,38,71,66,21,18,34,24,9,12,66,36,55,43,30,38,33,45,6,58];
end=[98,97,84,97,32,86,43,95,67,81,75,47,87,92,70,86,90,94,43,72];
price=[212,5256,286,661,126,5156,105,6704,2440,4290,740,984,1581,3870,2174,4398,1955,1554,3515,997];
requirement=[854,890,521,509,455,358,854,357,499,579,829,624,550,746,773,307,572,876,267,316];
capacity=[979,561,778,861,757,920,718,955,395,216];
